4
4 3
3 1 9 100
6 2
5 5 1 2 3 4
5 5
7 7 1 7 7
500 100
10000 5000 9000 5000 10000 5000 9000 5000 3500 1000 10000 5000 9000 5000 10000 5000 9000 5000 3500 1000 10000 5000 9000 5000 10000 5000 9000 5000 3500 1000 10000 5000 9000 5000 10000 5000 9000 5000 3500 1000 10000 5000 9000 5000 10000 5000 9000 5000 3500 1000 10000 5000 9000 5000 10000 5000 9000 5000 3500 1000 10000 5000 9000 5000 10000 5000 9000 5000 3500 1000 10000 5000 9000 5000 10000 5000 9000 5000 3500 1000 10000 5000 9000 5000 10000 5000 9000 5000 3500 1000 10000 5000 9000 5000 10000 5000 9000 5000 3500 1000 10000 5000 9000 5000 10000 5000 9000 5000 3500 1000 10000 5000 9000 5000 10000 5000 9000 5000 3500 1000 10000 5000 9000 5000 10000 5000 9000 5000 3500 1000 10000 5000 9000 5000 10000 5000 9000 5000 3500 1000 10000 5000 9000 5000 10000 5000 9000 5000 3500 1000 10000 5000 9000 5000 10000 5000 9000 5000 3500 1000 10000 5000 9000 5000 10000 5000 9000 5000 3500 1000 10000 5000 9000 5000 10000 5000 9000 5000 3500 1000 10000 5000 9000 5000 10000 5000 9000 5000 3500 1000 10000 5000 9000 5000 10000 5000 9000 5000 3500 1000 10000 5000 9000 5000 10000 5000 9000 5000 3500 1000 10000 5000 9000 5000 10000 5000 9000 5000 3500 1000 10000 5000 9000 5000 10000 5000 9000 5000 3500 1000 10000 5000 9000 5000 10000 5000 9000 5000 3500 1000 10000 5000 9000 5000 10000 5000 9000 5000 3500 1000 10000 5000 9000 5000 10000 5000 9000 5000 3500 1000 10000 5000 9000 5000 10000 5000 9000 5000 3500 1000 10000 5000 9000 5000 10000 5000 9000 5000 3500 1000 10000 5000 9000 5000 10000 5000 9000 5000 3500 1000 10000 5000 9000 5000 10000 5000 9000 5000 3500 1000 10000 5000 9000 5000 10000 5000 9000 5000 3500 1000 10000 5000 9000 5000 10000 5000 9000 5000 3500 1000 10000 5000 9000 5000 10000 5000 9000 5000 3500 1000 10000 5000 9000 5000 10000 5000 9000 5000 3500 1000 10000 5000 9000 5000 10000 5000 9000 5000 3500 1000 10000 5000 9000 5000 10000 5000 9000 5000 3500 1000 10000 5000 9000 5000 10000 5000 9000 5000 3500 1000 10000 5000 9000 5000 10000 5000 9000 5000 3500 1000 10000 5000 9000 5000 10000 5000 9000 5000 3500 1000 10000 5000 9000 5000 10000 5000 9000 5000 3500 1000 10000 5000 9000 5000 10000 5000 9000 5000 3500 1000 10000 5000 9000 5000 10000 5000 9000 5000 3500 1000 10000 5000 9000 5000 10000 5000 9000 5000 3500 1000 10000 5000 9000 5000 10000 5000 9000 5000 3500 1000 10000 5000 9000 5000 10000 5000 9000 5000 3500 1000 10000 5000 9000 5000 10000 5000 9000 5000 3500 1000 10000 5000 9000 5000 10000 5000 9000 5000 3500 1000 10000 5000 9000 5000 10000 5000 9000 5000 3500 1000 10000 5000 9000 5000 10000 5000 9000 5000 3500 1000 10000 5000 9000 5000 10000 5000 9000 5000 3500 1000 